# Objective value = 9620.07
I_0_0 1549
I_0_1 2188
I_0_2 1893
I_0_3 1.9269999999999998e+03
I_0_4 1.7929999999999998e+03
I_0_5 1.7040000000000002e+03
I_0_6 2.3429999999999995e+03
I_1_0 78
I_1_1 39
I_1_2 78
I_1_3 3.8999999999999993e+01
I_1_4 -9.2370555648813024e-14
I_1_5 7.7999999999999929e+01
I_1_6 3.8999999999999943e+01
I_2_0 190
I_2_1 95
I_2_2 0
I_2_3 190
I_2_4 190
I_2_5 9.5000000000000043e+01
I_2_6 0
I_3_0 26
I_3_1 13
I_3_2 26
I_3_3 1.2999999999999998e+01
I_3_4 2.6000000000000004e+01
I_3_5 13
I_3_6 0
I_4_0 55
I_4_1 0
I_4_2 55
I_4_3 0
I_4_4 55
I_4_5 55
I_4_6 1.5265566588595902e-15
I_5_0 94
I_5_1 47
I_5_2 94
I_5_3 47
I_5_4 9.4000000000000028e+01
I_5_5 4.7000000000000028e+01
I_5_6 0
I_6_0 39
I_6_1 0
I_6_2 3.8999999999999993e+01
I_6_3 -6.4948046940571658e-15
I_6_4 39
I_6_5 3.8999999999999964e+01
I_6_6 1.2989609388114332e-14
I_7_0 89
I_7_1 -1.2351231148954867e-15
I_7_2 89
I_7_3 89
I_7_4 0
I_7_5 89
I_7_6 0
I_8_0 89
I_8_1 -1.2351231148954867e-15
I_8_2 89
I_8_3 -1.4821477378745840e-14
I_8_4 8.9000000000000014e+01
I_8_5 8.8999999999999986e+01
I_8_6 4.9404924595819466e-15
I_9_0 154
I_9_1 77
I_9_2 -5.6843418860808015e-14
I_9_3 154
I_9_4 7.7000000000000014e+01
I_9_5 1.5399999999999991e+02
I_9_6 7.6999999999999929e+01
I_10_0 96
I_10_1 0
I_10_2 96
I_10_3 0
I_10_4 96
I_10_5 96
I_10_6 0
q_1_0 0
q_1_1 78
q_1_2 0
q_1_3 -9.2370555648813024e-14
q_1_4 1.1700000000000006e+02
q_1_5 0
q_2_0 -1.3183898417423734e-15
q_2_1 0
q_2_2 285
q_2_3 9.4999999999999986e+01
q_2_4 5.6843418860808015e-14
q_2_5 -4.2632564145606011e-14
q_3_0 9.0205620750793969e-17
q_3_1 26
q_3_2 0
q_3_3 2.6000000000000004e+01
q_3_4 0
q_3_5 0
q_4_0 0
q_4_1 110
q_4_2 0
q_4_3 110
q_4_4 55
q_4_5 1.5265566588595902e-15
q_5_0 0
q_5_1 9.4000000000000014e+01
q_5_2 0
q_5_3 9.3999999999999986e+01
q_5_4 1.4210854715202004e-14
q_5_5 -4.2632564145606011e-14
q_6_0 0
q_6_1 78
q_6_2 6.1062266354383610e-16
q_6_3 78
q_6_4 3.8999999999999964e+01
q_6_5 4.8516746176119341e-14
q_7_0 -1.2351231148954867e-15
q_7_1 178
q_7_2 89
q_7_3 0
q_7_4 178
q_7_5 0
q_8_0 -1.2351231148954867e-15
q_8_1 178
q_8_2 -1.4821477378745840e-14
q_8_3 1.7800000000000003e+02
q_8_4 8.8999999999999972e+01
q_8_5 1.9151347174783950e-14
q_9_0 0
q_9_1 -1.4210854715202004e-14
q_9_2 2.3100000000000006e+02
q_9_3 0
q_9_4 1.5399999999999989e+02
q_9_5 2.8421709430404007e-14
q_10_0 0
q_10_1 192
q_10_2 0
q_10_3 192
q_10_4 96
q_10_5 0
y_0_0 -1.3877787807814457e-17
y_0_1 1
y_0_2 1
y_0_3 1
y_0_4 9.9999999999999978e-01
y_0_5 0
y_1_0 0
y_1_1 1
y_1_2 0
y_1_3 -4.4408920985006262e-16
y_1_4 1.0000000000000004e+00
y_1_5 0
y_2_0 -1.3877787807814457e-17
y_2_1 -5.5511151231257827e-17
y_2_2 1.0000000000000002e+00
y_2_3 1
y_2_4 2.2204460492503131e-16
y_2_5 -2.2204460492503131e-16
y_3_0 6.9388939039072284e-18
y_3_1 1
y_3_2 0
y_3_3 1
y_3_4 0
y_3_5 0
y_4_0 0
y_4_1 1
y_4_2 0
y_4_3 1
y_4_4 1
y_4_5 2.7755575615628914e-17
y_5_0 0
y_5_1 1.0000000000000002e+00
y_5_2 0
y_5_3 9.9999999999999978e-01
y_5_4 1.1102230246251565e-16
y_5_5 -1.1102230246251565e-16
y_6_0 0
y_6_1 9.9999999999999978e-01
y_6_2 -1.6653345369377348e-16
y_6_3 1
y_6_4 0.999999999999999
y_6_5 3.3306690738754696e-16
y_7_0 -1.3877787807814457e-17
y_7_1 1
y_7_2 1
y_7_3 0
y_7_4 1
y_7_5 0
y_8_0 -1.3877787807814457e-17
y_8_1 1
y_8_2 -1.6653345369377348e-16
y_8_3 1.0000000000000002e+00
y_8_4 9.9999999999999978e-01
y_8_5 5.5511151231257827e-17
y_9_0 0
y_9_1 -1.3877787807814457e-16
y_9_2 1.0000000000000002e+00
y_9_3 0
y_9_4 1
y_9_5 0
y_10_0 0
y_10_1 1
y_10_2 0
y_10_3 1
y_10_4 1
y_10_5 0
x_0_1_0 0
x_0_1_1 0
x_0_1_2 0
x_0_1_3 0
x_0_1_4 0
x_0_1_5 0
x_0_2_0 -5.5511151231257827e-17
x_0_2_1 -5.5511151231257827e-17
x_0_2_2 1.0000000000000004e+00
x_0_2_3 1
x_0_2_4 4.4408920985006262e-16
x_0_2_5 -4.4408920985006262e-16
x_0_3_0 0
x_0_3_1 0
x_0_3_2 -1.1102230246251565e-16
x_0_3_3 0
x_0_3_4 0
x_0_3_5 0
x_0_4_0 0
x_0_4_1 -4.2327252813834093e-16
x_0_4_2 0
x_0_4_3 0
x_0_4_4 1.0000000000000004e+00
x_0_4_5 0
x_0_5_0 0
x_0_5_1 0
x_0_5_2 0
x_0_5_3 0
x_0_5_4 0
x_0_5_5 0
x_0_6_0 0
x_0_6_1 -2.9143354396410359e-16
x_0_6_2 -1.6653345369377348e-16
x_0_6_3 3.8857805861880479e-16
x_0_6_4 9.9999999999999822e-01
x_0_6_5 3.3306690738754696e-16
x_0_7_0 0
x_0_7_1 1.0000000000000009e+00
x_0_7_2 0
x_0_7_3 0
x_0_7_4 0
x_0_7_5 0
x_0_8_0 -1.3877787807814457e-17
x_0_8_1 1.0000000000000009e+00
x_0_8_2 -5.5511151231257827e-17
x_0_8_3 1.0000000000000002e+00
x_0_8_4 3.8857805861880479e-16
x_0_8_5 0
x_0_9_0 0
x_0_9_1 2.7061686225238191e-16
x_0_9_2 9.9999999999999989e-01
x_0_9_3 0
x_0_9_4 -2.2204460492503131e-16
x_0_9_5 0
x_0_10_0 0
x_0_10_1 0
x_0_10_2 0
x_0_10_3 0
x_0_10_4 0
x_0_10_5 0
x_1_2_0 0
x_1_2_1 0
x_1_2_2 0
x_1_2_3 0
x_1_2_4 0
x_1_2_5 0
x_1_3_0 0
x_1_3_1 1
x_1_3_2 0
x_1_3_3 0
x_1_3_4 0
x_1_3_5 0
x_1_4_0 0
x_1_4_1 9.9999999999999978e-01
x_1_4_2 0
x_1_4_3 1.6653345369377348e-16
x_1_4_4 1.0000000000000004e+00
x_1_4_5 0
x_1_5_0 0
x_1_5_1 0
x_1_5_2 0
x_1_5_3 1.6653345369377348e-16
x_1_5_4 0
x_1_5_5 0
x_1_6_0 0
x_1_6_1 0
x_1_6_2 0
x_1_6_3 0
x_1_6_4 0
x_1_6_5 0
x_1_7_0 0
x_1_7_1 0
x_1_7_2 0
x_1_7_3 0
x_1_7_4 0
x_1_7_5 0
x_1_8_0 0
x_1_8_1 0
x_1_8_2 0
x_1_8_3 0
x_1_8_4 0
x_1_8_5 0
x_1_9_0 0
x_1_9_1 0
x_1_9_2 0
x_1_9_3 0
x_1_9_4 0
x_1_9_5 0
x_1_10_0 0
x_1_10_1 2.2204460492503131e-16
x_1_10_2 0
x_1_10_3 0
x_1_10_4 1.0000000000000004e+00
x_1_10_5 0
x_2_3_0 0
x_2_3_1 0
x_2_3_2 0
x_2_3_3 0
x_2_3_4 0
x_2_3_5 0
x_2_4_0 0
x_2_4_1 0
x_2_4_2 0
x_2_4_3 0
x_2_4_4 0
x_2_4_5 0
x_2_5_0 0
x_2_5_1 0
x_2_5_2 0
x_2_5_3 0
x_2_5_4 0
x_2_5_5 0
x_2_6_0 0
x_2_6_1 0
x_2_6_2 0
x_2_6_3 0
x_2_6_4 0
x_2_6_5 0
x_2_7_0 -1.3877787807814457e-17
x_2_7_1 -5.5511151231257827e-17
x_2_7_2 1
x_2_7_3 0
x_2_7_4 0
x_2_7_5 0
x_2_8_0 0
x_2_8_1 0
x_2_8_2 0
x_2_8_3 0
x_2_8_4 0
x_2_8_5 0
x_2_9_0 0
x_2_9_1 0
x_2_9_2 0
x_2_9_3 0
x_2_9_4 -1.1102230246251565e-16
x_2_9_5 0
x_2_10_0 0
x_2_10_1 0
x_2_10_2 0
x_2_10_3 1
x_2_10_4 0
x_2_10_5 0
x_3_4_0 0
x_3_4_1 5.5511151231257827e-16
x_3_4_2 0
x_3_4_3 1
x_3_4_4 -1.1449174941446927e-16
x_3_4_5 0
x_3_5_0 0
x_3_5_1 0
x_3_5_2 0
x_3_5_3 0
x_3_5_4 0
x_3_5_5 0
x_3_6_0 0
x_3_6_1 0
x_3_6_2 0
x_3_6_3 0
x_3_6_4 0
x_3_6_5 0
x_3_7_0 0
x_3_7_1 0
x_3_7_2 0
x_3_7_3 0
x_3_7_4 0
x_3_7_5 0
x_3_8_0 0
x_3_8_1 0
x_3_8_2 0
x_3_8_3 0
x_3_8_4 0
x_3_8_5 0
x_3_9_0 0
x_3_9_1 0
x_3_9_2 0
x_3_9_3 0
x_3_9_4 0
x_3_9_5 0
x_3_10_0 0
x_3_10_1 9.9999999999999956e-01
x_3_10_2 0
x_3_10_3 1
x_3_10_4 1.1449174941446927e-16
x_3_10_5 0
x_4_5_0 0
x_4_5_1 1
x_4_5_2 0
x_4_5_3 9.9999999999999978e-01
x_4_5_4 1.1102230246251565e-16
x_4_5_5 1.1102230246251565e-16
x_4_6_0 0
x_4_6_1 0
x_4_6_2 0
x_4_6_3 0
x_4_6_4 0
x_4_6_5 0
x_4_7_0 0
x_4_7_1 0
x_4_7_2 0
x_4_7_3 0
x_4_7_4 0
x_4_7_5 0
x_4_8_0 0
x_4_8_1 0
x_4_8_2 0
x_4_8_3 0
x_4_8_4 0
x_4_8_5 0
x_4_9_0 0
x_4_9_1 0
x_4_9_2 0
x_4_9_3 0
x_4_9_4 0
x_4_9_5 0
x_4_10_0 0
x_4_10_1 0
x_4_10_2 0
x_4_10_3 0
x_4_10_4 -8.3266726846886741e-16
x_4_10_5 0
x_5_6_0 0
x_5_6_1 1.0000000000000004e+00
x_5_6_2 0
x_5_6_3 9.9999999999999967e-01
x_5_6_4 0
x_5_6_5 1.1102230246251565e-16
x_5_7_0 0
x_5_7_1 0
x_5_7_2 0
x_5_7_3 0
x_5_7_4 0
x_5_7_5 0
x_5_8_0 0
x_5_8_1 0
x_5_8_2 0
x_5_8_3 0
x_5_8_4 0
x_5_8_5 0
x_5_9_0 0
x_5_9_1 0
x_5_9_2 0
x_5_9_3 0
x_5_9_4 0
x_5_9_5 0
x_5_10_0 0
x_5_10_1 0
x_5_10_2 0
x_5_10_3 0
x_5_10_4 0
x_5_10_5 0
x_6_7_0 0
x_6_7_1 0
x_6_7_2 0
x_6_7_3 0
x_6_7_4 0
x_6_7_5 0
x_6_8_0 -1.3877787807814457e-17
x_6_8_1 1
x_6_8_2 -1.6653345369377348e-16
x_6_8_3 1.0000000000000002e+00
x_6_8_4 9.9999999999999978e-01
x_6_8_5 1.1102230246251565e-16
x_6_9_0 0
x_6_9_1 0
x_6_9_2 0
x_6_9_3 0
x_6_9_4 0
x_6_9_5 0
x_6_10_0 0
x_6_10_1 0
x_6_10_2 0
x_6_10_3 0
x_6_10_4 0
x_6_10_5 0
x_7_8_0 0
x_7_8_1 0
x_7_8_2 0
x_7_8_3 0
x_7_8_4 0
x_7_8_5 0
x_7_9_0 0
x_7_9_1 -2.4980018054066022e-16
x_7_9_2 1
x_7_9_3 0
x_7_9_4 1
x_7_9_5 0
x_7_10_0 0
x_7_10_1 1.0000000000000004e+00
x_7_10_2 0
x_7_10_3 0
x_7_10_4 1
x_7_10_5 0
x_8_9_0 0
x_8_9_1 -9.9226182825873366e-16
x_8_9_2 0
x_8_9_3 0
x_8_9_4 9.9999999999999956e-01
x_8_9_5 0
x_8_10_0 0
x_8_10_1 0
x_8_10_2 0
x_8_10_3 0
x_8_10_4 0
x_8_10_5 0
x_9_10_0 0
x_9_10_1 0
x_9_10_2 0
x_9_10_3 0
x_9_10_4 0
x_9_10_5 0
